peakDumbCharging = 7400; 
Machine = anon_enum(16); 
machineSpeed = [3700,3700,3700,3700,3700,3700,3700,3700,3700,3700,3700,3700,3700,3700,3700,3700]; 
machineLoad = [3700,3700,3700,3700,3700,3700,3700,3700,3700,3700,3700,3700,3700,3700,3700,3700]; 
Car = anon_enum(5); 
demandCar = [4360,4000,10800,36280,4480]; 
arrivalCar = [75,74,62,59,55]; 
departureCar = [77,76,66,75,60]; 
